WARNING: for repeatability, setting FPU to use double precision
============================[ Problem Statistics ]=============================
|                                                                             |
|  Number of variables:           100                                         |
|  Number of clauses:             449                                         |
|  Parse time:                   0.00 s                                       |
|  Eliminated clauses:           0.00 Mb                                      |
|  Simplification time:          0.00 s                                       |
|                                                                             |
============================[ Search Statistics ]==============================
| Conflicts |          ORIGINAL         |          LEARNT          | Progress |
|           |    Vars  Clauses Literals |    Limit  Clauses Lit/Cl |          |
===============================================================================
|       100 |      97      445     1357 |      163      100      8 |  0.010 % |
|       250 |      97      445     1357 |      179      167      6 |  0.021 % |
|       475 |      92      412     1251 |      197      182      6 |  5.010 % |
===============================================================================
restarts              : 5
conflicts             : 505            (223155 /sec)
decisions             : 600            (0.00 % random) (265135 /sec)
propagations          : 11266          (4978347 /sec)
conflict literals     : 3070           (24.20 % deleted)
Memory used           : 13.00 MB
CPU time              : 0.002263 s

SATISFIABLE
